
Starting CP-SAT solver v9.15.6755
Parameters: random_seed: 2026073082 max_time_in_seconds: 2409.1040078647998 log_search_progress: true cp_model_presolve: true linearization_level: 2 num_search_workers: 4 cp_model_probing_level: 2 symmetry_level: 2

Initial satisfaction model '': (model_fingerprint: 0xba421eb8d3139f64)
#Variables: 724 (604 primary variables)
  - 724 Booleans in [0,1]
#kBoolAnd: 110 (#enforced: 110) (#literals: 330)
#kBoolOr: 110 (#enforced: 110) (#literals: 220)
#kExactlyOne: 87 (#literals: 261)
#kLinear1: 36 (#enforced: 6)
#kLinear2: 336 (#enforced: 336) (#complex_domain: 110)
#kLinear3: 1'600 (#enforced: 6)
#kLinearN: 1'132 (#enforced: 243) (#terms: 9'111)

Starting presolve at 0.00s
  6.39e-04s  0.00e+00d  [DetectDominanceRelations] 
  8.23e-03s  0.00e+00d  [PresolveToFixPoint] #num_loops=3 #num_dual_strengthening=1 
  3.37e-05s  0.00e+00d  [ExtractEncodingFromLinear] #potential_supersets=95 
  2.67e-04s  0.00e+00d  [DetectDuplicateColumns] 
  1.01e-04s  0.00e+00d  [DetectDuplicateConstraints] #duplicates=9 
[Symmetry] Graph for symmetry has 4'853 nodes and 15'606 arcs.
[Symmetry] Symmetry computation done. time: 0.00119438 dtime: 0.00182127
[SAT presolve] num removable Booleans: 220 / 620
[SAT presolve] num trivial clauses: 0
[SAT presolve] [0s] clauses:2'700 literals:7'350 vars:505 one_side_vars:65 simple_definition:1 singleton_clauses:0
[SAT presolve] [0.00023994s] clauses:2'699 literals:7'343 vars:505 one_side_vars:65 simple_definition:1 singleton_clauses:0
[SAT presolve] [0.000568037s] clauses:2'467 literals:7'012 vars:393 one_side_vars:65 simple_definition:2 singleton_clauses:0
  1.40e-04s  0.00e+00d  [DetectDuplicateConstraintsWithDifferentEnforcements] #without_enforcements=4 
  5.78e-03s  3.16e-03d  [Probe] #probed=1'280 #fixed_bools=15 #equiv=9 #new_binary_clauses=1'111 
  7.02e-04s  5.40e-04d  [MaxClique] Merged 687 constraints with 1'510 literals into 623 constraints with 1'403 literals
  8.14e-04s  0.00e+00d  [DetectDominanceRelations] 
  3.42e-03s  0.00e+00d  [PresolveToFixPoint] #num_loops=2 #num_dual_strengthening=2 
  1.29e-03s  0.00e+00d  [ProcessAtMostOneAndLinear] 
  9.87e-05s  0.00e+00d  [DetectDuplicateConstraints] #duplicates=5 
  8.50e-05s  0.00e+00d  [DetectDuplicateConstraintsWithDifferentEnforcements] 
  3.37e-03s  1.01e-04d  [DetectDominatedLinearConstraints] #relevant_constraints=828 #num_inclusions=497 #num_redundant=7 
  1.20e-04s  0.00e+00d  [DetectDifferentVariables] 
  8.30e-04s  9.01e-05d  [ProcessSetPPC] #relevant_constraints=3'185 #num_inclusions=290 
  3.05e-04s  3.50e-05d  [TransformClausesToExactlyOne] #num_amos=623 #num_clauses=1'764 #num_transformed=5 #num_checked=1'764 
  4.85e-05s  0.00e+00d  [DetectEncodedComplexDomains] 
  2.95e-05s  0.00e+00d  [FindAlmostIdenticalLinearConstraints] 
  9.68e-04s  1.37e-03d  [FindBigAtMostOneAndLinearOverlap] 
  1.56e-03s  1.15e-03d  [FindBigVerticalLinearOverlap] #blocks=5 #saved_nz=338 
  2.91e-04s  5.63e-04d  [FindBigHorizontalLinearOverlap] #linears=463 
  3.15e-04s  2.75e-05d  [MergeClauses] #num_collisions=9 #num_merges=9 #num_saved_literals=18 
  7.84e-04s  0.00e+00d  [DetectDominanceRelations] 
  3.03e-03s  0.00e+00d  [PresolveToFixPoint] #num_loops=2 #num_dual_strengthening=1 
  7.65e-04s  0.00e+00d  [DetectDominanceRelations] 
  2.87e-03s  0.00e+00d  [PresolveToFixPoint] #num_loops=1 #num_dual_strengthening=1 
  1.67e-04s  0.00e+00d  [DetectDuplicateColumns] 
  9.09e-05s  0.00e+00d  [DetectDuplicateConstraints] 
[Symmetry] Graph for symmetry has 4'509 nodes and 13'773 arcs.
[Symmetry] Symmetry computation done. time: 0.00103762 dtime: 0.00143437
[SAT presolve] num removable Booleans: 98 / 483
[SAT presolve] num trivial clauses: 0
[SAT presolve] [0s] clauses:2'330 literals:6'648 vars:456 one_side_vars:155 simple_definition:11 singleton_clauses:0
[SAT presolve] [0.000239077s] clauses:2'330 literals:6'511 vars:456 one_side_vars:156 simple_definition:77 singleton_clauses:0
[SAT presolve] [0.000393885s] clauses:2'128 literals:6'030 vars:451 one_side_vars:201 simple_definition:55 singleton_clauses:0
  1.58e-04s  0.00e+00d  [DetectDuplicateConstraintsWithDifferentEnforcements] #without_enforcements=1 
  5.52e-03s  1.89e-03d  [Probe] #probed=1'266 #new_binary_clauses=671 
  4.25e-04s  3.02e-04d  [MaxClique] Merged 512 constraints with 1'117 literals into 494 constraints with 1'104 literals
  7.50e-04s  0.00e+00d  [DetectDominanceRelations] 
  2.92e-03s  0.00e+00d  [PresolveToFixPoint] #num_loops=1 #num_dual_strengthening=1 
  1.18e-03s  0.00e+00d  [ProcessAtMostOneAndLinear] 
  9.07e-05s  0.00e+00d  [DetectDuplicateConstraints] 
  7.63e-05s  0.00e+00d  [DetectDuplicateConstraintsWithDifferentEnforcements] 
  8.81e-04s  5.30e-05d  [DetectDominatedLinearConstraints] #relevant_constraints=824 #num_inclusions=296 
  1.24e-04s  0.00e+00d  [DetectDifferentVariables] 
  7.44e-04s  6.77e-05d  [ProcessSetPPC] #relevant_constraints=3'032 #num_inclusions=68 
  2.89e-04s  3.16e-05d  [TransformClausesToExactlyOne] #num_amos=490 #num_clauses=1'664 #num_checked=1'664 
  3.85e-05s  0.00e+00d  [DetectEncodedComplexDomains] 
  3.84e-05s  1.90e-07d  [FindAlmostIdenticalLinearConstraints] #num_tested_pairs=2 
  8.01e-04s  9.38e-04d  [FindBigAtMostOneAndLinearOverlap] 
  1.20e-03s  8.16e-04d  [FindBigVerticalLinearOverlap] 
  3.01e-04s  5.62e-04d  [FindBigHorizontalLinearOverlap] #linears=462 
  3.26e-04s  2.55e-05d  [MergeClauses] #num_collisions=68 #num_merges=68 #num_saved_literals=168 
  7.79e-04s  0.00e+00d  [DetectDominanceRelations] 
  2.94e-03s  0.00e+00d  [PresolveToFixPoint] #num_loops=1 #num_dual_strengthening=1 
  7.69e-04s  0.00e+00d  [DetectDominanceRelations] 
  2.87e-03s  0.00e+00d  [PresolveToFixPoint] #num_loops=1 #num_dual_strengthening=1 
  1.89e-04s  0.00e+00d  [DetectDuplicateColumns] 
  1.01e-04s  0.00e+00d  [DetectDuplicateConstraints] 
[Symmetry] Graph for symmetry has 4'252 nodes and 12'829 arcs.
[Symmetry] Symmetry computation done. time: 0.00102669 dtime: 0.00134838
[SAT presolve] num removable Booleans: 93 / 478
[SAT presolve] num trivial clauses: 0
[SAT presolve] [0s] clauses:2'101 literals:5'971 vars:451 one_side_vars:201 simple_definition:55 singleton_clauses:0
[SAT presolve] [0.000223802s] clauses:2'101 literals:5'971 vars:451 one_side_vars:201 simple_definition:55 singleton_clauses:0
[SAT presolve] [0.000287819s] clauses:2'101 literals:5'971 vars:451 one_side_vars:201 simple_definition:55 singleton_clauses:0
  1.75e-04s  0.00e+00d  [DetectDuplicateConstraintsWithDifferentEnforcements] 
  5.68e-03s  1.88e-03d  [Probe] #probed=1'266 #new_binary_clauses=670 
  4.39e-04s  2.91e-04d  [MaxClique] Merged 488 constraints with 1'075 literals into 487 constraints with 1'074 literals
  7.95e-04s  0.00e+00d  [DetectDominanceRelations] 
  3.03e-03s  0.00e+00d  [PresolveToFixPoint] #num_loops=1 #num_dual_strengthening=1 
  1.19e-03s  0.00e+00d  [ProcessAtMostOneAndLinear] 
  1.05e-04s  0.00e+00d  [DetectDuplicateConstraints] 
  8.99e-05s  0.00e+00d  [DetectDuplicateConstraintsWithDifferentEnforcements] 
  9.15e-04s  5.30e-05d  [DetectDominatedLinearConstraints] #relevant_constraints=824 #num_inclusions=296 
  1.33e-04s  0.00e+00d  [DetectDifferentVariables] 
  7.44e-04s  6.75e-05d  [ProcessSetPPC] #relevant_constraints=3'027 #num_inclusions=61 
  3.10e-04s  3.17e-05d  [TransformClausesToExactlyOne] #num_amos=487 #num_clauses=1'666 #num_checked=1'666 
  5.10e-05s  0.00e+00d  [DetectEncodedComplexDomains] 
  4.77e-05s  0.00e+00d  [FindAlmostIdenticalLinearConstraints] 
  8.63e-04s  9.38e-04d  [FindBigAtMostOneAndLinearOverlap] 
  1.29e-03s  8.16e-04d  [FindBigVerticalLinearOverlap] 
  3.31e-04s  5.62e-04d  [FindBigHorizontalLinearOverlap] #linears=462 
  3.30e-04s  2.55e-05d  [MergeClauses] #num_collisions=69 #num_merges=69 #num_saved_literals=170 
  8.23e-04s  0.00e+00d  [DetectDominanceRelations] 
  3.05e-03s  0.00e+00d  [PresolveToFixPoint] #num_loops=1 #num_dual_strengthening=1 
  1.64e-05s  0.00e+00d  [MergeNoOverlap] 
  1.59e-05s  0.00e+00d  [MergeNoOverlap2D] 

Presolve summary:
  - 36 affine relations were detected.
  - rule 'TODO dual: only one blocking constraint?' was applied 925 times.
  - rule 'TODO linear inclusion: superset is equality' was applied 222 times.
  - rule 'affine: new relation' was applied 36 times.
  - rule 'at_most_one: removed literals' was applied 73 times.
  - rule 'at_most_one: satisfied' was applied 2 times.
  - rule 'at_most_one: size one' was applied 72 times.
  - rule 'at_most_one: transformed into max clique' was applied 3 times.
  - rule 'bool_or: always true' was applied 15 times.
  - rule 'bool_or: implications' was applied 75 times.
  - rule 'bool_or: only one literal' was applied 12 times.
  - rule 'bool_or: removed enforcement literal' was applied 557 times.
  - rule 'clauses: transformed into exactly one' was applied 5 times.
  - rule 'deductions: 776 stored' was applied 1 time.
  - rule 'dual: fix variable' was applied 1 time.
  - rule 'duplicate: merged rhs of linear constraint' was applied 13 times.
  - rule 'duplicate: removed constraint' was applied 14 times.
  - rule 'duplicate: removed enforced constraint' was applied 5 times.
  - rule 'enforcement: false literal' was applied 38 times.
  - rule 'enforcement: true literal' was applied 12 times.
  - rule 'exactly_one: removed literals' was applied 29 times.
  - rule 'exactly_one: satisfied' was applied 7 times.
  - rule 'exactly_one: singleton' was applied 2 times.
  - rule 'exactly_one: size two' was applied 27 times.
  - rule 'exactly_one: x and not(x)' was applied 6 times.
  - rule 'incompatible linear: add implication' was applied 123 times.
  - rule 'linear + amo: empty after processing' was applied 5 times.
  - rule 'linear + amo: extracted enforcement literal' was applied 46 times.
  - rule 'linear + amo: trivial linear constraint' was applied 2 times.
  - rule 'linear inclusion: redundant containing constraint' was applied 3 times.
  - rule 'linear inclusion: redundant included constraint' was applied 3 times.
  - rule 'linear inclusion: sparsify superset' was applied 1 time.
  - rule 'linear matrix: common vertical rectangle' was applied 5 times.
  - rule 'linear1: always true' was applied 1 time.
  - rule 'linear1: x in domain' was applied 30 times.
  - rule 'linear2: convert ax + by != cte to clauses' was applied 248 times.
  - rule 'linear2: convert implied ax + by == cte to clauses' was applied 114 times.
  - rule 'linear2: implied ax + by = cte has only one solution' was applied 9 times.
  - rule 'linear: always true' was applied 425 times.
  - rule 'linear: coefficient strengthening by increasing it' was applied 2 times.
  - rule 'linear: empty' was applied 1 time.
  - rule 'linear: extracted at most one (max)' was applied 1 time.
  - rule 'linear: fixed or dup variables' was applied 879 times.
  - rule 'linear: negative clause' was applied 1'283 times.
  - rule 'linear: negative reified and' was applied 74 times.
  - rule 'linear: never in domain' was applied 5 times.
  - rule 'linear: positive at most one' was applied 44 times.
  - rule 'linear: positive equal one' was applied 1 time.
  - rule 'linear: reduced variable domains' was applied 6 times.
  - rule 'linear: remapped using affine relations' was applied 22 times.
  - rule 'presolve: 91 unused variables removed.' was applied 1 time.
  - rule 'presolve: iteration' was applied 3 times.
  - rule 'probing: bool_or reduced to implication' was applied 53 times.
  - rule 'probing: simplified clauses' was applied 6 times.
  - rule 'setppc: bool_or in at_most_one' was applied 12 times.
  - rule 'setppc: exactly_one included in linear' was applied 1 time.
  - rule 'setppc: reduced linear coefficients' was applied 1 time.
  - rule 'setppc: removed dominated constraints' was applied 85 times.

Presolved satisfaction model '': (model_fingerprint: 0x6f1f04a9ffd8b226)
#Variables: 483 (413 primary variables)
  - 478 Booleans in [0,1]
  - 4 in [0,2]
  - 1 in [0,8]
#kAtMostOne: 54 (#literals: 208)
#kBoolAnd: 258 (#enforced: 258) (#literals: 691)
#kBoolAndClauses: 69 (#enforced: 69 #multi: 69) (#literals: 308)
#kBoolOr: 1'528 (#literals: 4'623)
#kExactlyOne: 56 (#literals: 213)
#kLinear3: 6 (#enforced: 4)
#kLinearN: 818 (#enforced: 122) (#terms: 5'472)
[Symmetry] Graph for symmetry has 4'004 nodes and 12'824 arcs.
[Symmetry] Symmetry computation done. time: 0.000828321 dtime: 0.00133286

Preloading model.
#Model   0.10s var:483/483 constraints:2789/2789

Starting search at 0.10s with 4 workers.
3 full problem subsolvers: [default_lp, max_lp, no_lp]
1 first solution subsolver: [fj]
2 interleaved subsolvers: [feasibility_pump, rins/rens]
2 helper subsolvers: [neighborhood_helper, synchronization_agent]

#Model   9.48s var:482/483 constraints:2774/2789
#Model  70.22s var:481/483 constraints:2758/2789
#Model  94.61s var:480/483 constraints:2756/2789
#Model 1370.11s var:479/483 constraints:2743/2789

Task timing                   n [     min,      max]      avg      dev     time         n [     min,      max]      avg      dev    dtime
        'default_lp':         1 [  40.15m,   40.15m]   40.15m   0.00ns   40.15m         2 [  2.07ms,   39.29m]   19.64m   19.64m   39.29m
  'feasibility_pump':     11941 [ 37.57us, 181.46ms]   1.62ms   1.67ms   19.38s     11938 [286.55us, 154.72ms] 302.23us   1.41ms    3.61s
                'fj':      8969 [ 70.86ms, 196.50ms] 133.13ms   7.69ms   19.90m      8969 [ 59.89ms, 100.14ms] 100.01ms 423.89us   14.95m
            'max_lp':         1 [  40.15m,   40.15m]   40.15m   0.00ns   40.15m         2 [111.89ms,   51.98m]   25.99m   25.99m   51.98m
             'no_lp':         1 [  40.15m,   40.15m]   40.15m   0.00ns   40.15m         2 [  1.74ms,    1.38h]   41.38m   41.38m    1.38h
         'rins/rens':     10834 [ 19.14ms, 188.84ms] 110.22ms  43.02ms   19.90m     10833 [141.52us, 100.36ms]  67.43ms  37.75ms   12.17m

Search stats     Bools   Conflicts    Branches  Restarts  BacktrackToRoot   Backtrack     BoolPropag  IntegerPropag
  'default_lp':    478     206'977   8'197'078     1'298        1'247'572   1'757'018     78'620'558     97'063'361
      'max_lp':    478      90'633  10'248'495       602        1'551'507   1'988'997     96'205'864    125'068'700
       'no_lp':    478  21'736'798  29'124'036    74'921          562'472  22'149'247  1'792'029'737    447'800'157

SAT formula      Fixed  Equiv  Total  VarLeft  BinaryClauses  PermanentClauses  TemporaryClauses
  'default_lp':      4      3    478      471          2'524            44'225            10'160
      'max_lp':      4      3    478      471          2'524            43'913            13'111
       'no_lp':      4      3    478      471          2'524           131'430             7'849

SAT stats        ClassicMinim   LitRemoved  LitRemovedBinary   LitLearned  LitForgotten   Subsumed
  'default_lp':       179'378    2'269'126           981'307    6'708'359     4'446'559     71'675
      'max_lp':        77'769    1'045'114           399'879    2'559'230     1'419'419     28'264
       'no_lp':    19'628'677  343'678'778       103'600'661  521'586'499   409'591'543  6'067'585

Vivification       Clauses  Decisions  LitTrue  Subsumed  LitRemoved  DecisionReused  Conflicts
  'default_lp':  1'284'706  7'658'990        4    10'445     109'053         317'362        763
      'max_lp':  1'558'116  9'781'736        0    11'551     122'106         342'885        741
       'no_lp':    407'362  3'464'344        0    24'059     307'395          97'548        731

Clause deletion    at_true  l_and_not(l)  to_binary  sub_conflict  sub_extra  sub_decisions  sub_eager  sub_vivify  sub_probing  sub_inpro  blocked  eliminated   forgotten    promoted   conflicts
    'default_lp':      311             0          3        70'679        554          2'506        996      10'445          644      5'726        0           0     115'927     403'130     206'977
        'max_lp':      299             1          1        27'979        223            717        285      11'551          950      2'324        0           0      44'203     179'991      90'633
         'no_lp':      689             1          5     5'964'650     40'427        258'569    102'935      24'059        1'945    101'105        0           0  15'108'412  49'176'267  21'736'798

Lp stats         Component  Iterations  AddedCuts  OPTIMAL  DUAL_F.  DUAL_U.
  'default_lp':          1  29'684'904     86'947  309'287        2  176'213
      'max_lp':          1  14'540'037     80'405   39'559   76'032   34'222

Lp dimension        Final dimension of first component
  'default_lp':   422 rows, 344 columns, 16038 entries
      'max_lp':  1640 rows, 483 columns, 38315 entries

Lp debug         CutPropag  CutEqPropag   Adjust  Overflow        Bad  BadScaling
  'default_lp':          0          214  176'213         0  2'617'192           0
      'max_lp':          0          210   34'216         0  2'353'110           0

Lp pool          Constraints  Updates  Simplif  Merged  Shortened  Split  Strengthened       Cuts/Call
  'default_lp':       10'735   15'999        0       0        192      0             0  86'947/143'431
      'max_lp':       12'522   22'301        0       0        256      0         2'147  80'405/154'060

Lp Cut            default_lp  max_lp
          CG_FF:       1'370     130
           CG_K:         752      14
          CG_KL:         667       2
           CG_R:       1'473      85
          CG_RB:          91      15
         CG_RBP:           4       2
         Clique:           -      92
             IB:          50      15
       MIR_1_FF:         708     877
        MIR_1_K:         176      21
       MIR_1_KL:         497      24
        MIR_1_R:         621     414
       MIR_1_RB:          19       1
      MIR_1_RBP:          15       -
      MIR_1_RLT:           -   9'266
       MIR_2_FF:         777     946
        MIR_2_K:         180     144
       MIR_2_KL:         359      48
        MIR_2_R:         873     870
       MIR_2_RB:          48       3
      MIR_2_RBP:          70       -
       MIR_3_FF:         392     248
        MIR_3_K:          58      42
       MIR_3_KL:         127      17
        MIR_3_R:         389     340
       MIR_3_RB:          14       8
      MIR_3_RBP:          14       7
       MIR_4_FF:         198      95
        MIR_4_K:          33      20
       MIR_4_KL:          76       1
        MIR_4_R:         263     302
       MIR_4_RB:          21       5
      MIR_4_RBP:           8      10
       MIR_5_FF:          81      40
        MIR_5_K:          20       6
       MIR_5_KL:          14       1
        MIR_5_R:         150     222
       MIR_5_RB:          19       4
      MIR_5_RBP:           4       5
       MIR_6_FF:          48      24
        MIR_6_K:          18       3
       MIR_6_KL:           5       -
        MIR_6_R:         109     194
       MIR_6_RB:          25       3
      MIR_6_RBP:           6       7
   ZERO_HALF_FF:         424     671
    ZERO_HALF_K:          69      23
   ZERO_HALF_KL:         139       7
    ZERO_HALF_R:      75'378  65'080
   ZERO_HALF_RB:          22       7
  ZERO_HALF_RBP:          73      44

LNS stats       Improv/Calls  Closed  Difficulty  TimeLimit
  'rins/rens':   10833/10833     50%    7.56e-01       0.10

LS stats                                    Batches  Restarts/Perturbs    LinMoves    GenMoves  CompoundMoves  Bactracks  WeightUpdates  ScoreComputed
                             'fj_restart':      546                115  14'748'897           0              0          0     13'286'399     25'667'662
                    'fj_restart_compound':      456                140           0   4'961'103        340'145  2'310'215         10'798     83'936'398
                'fj_restart_compound_obj':      456                118           0   4'933'627        284'901  2'324'161         12'333     84'059'927
            'fj_restart_compound_perturb':      343                112           0   3'729'910        254'241  1'737'655          8'371     63'176'557
        'fj_restart_compound_perturb_obj':      350                134           0   3'741'655        288'370  1'726'374          7'761     64'341'188
                       'fj_restart_decay':      531                110  16'296'308           0              0          0        711'613     10'648'265
              'fj_restart_decay_compound':      403                107           0   4'819'394        784'172  2'017'398          5'196     74'586'893
          'fj_restart_decay_compound_obj':      733                135           0   9'011'429      1'461'365  3'774'717          9'398    136'076'457
      'fj_restart_decay_compound_perturb':    1'066                134           0  13'300'094      2'171'673  5'563'871         13'565    198'004'690
  'fj_restart_decay_compound_perturb_obj':      446                120           0   5'299'757        862'155  2'218'485          5'761     82'551'993
                   'fj_restart_decay_obj':      623                137  19'122'857           0              0          0        836'210     12'511'100
               'fj_restart_decay_perturb':      675                122  20'721'020           0              0          0        905'402     13'553'088
           'fj_restart_decay_perturb_obj':      369                121  11'316'364           0              0          0        494'642      7'409'787
                         'fj_restart_obj':      567                133  15'393'806           0              0          0     13'690'469     26'068'732
                     'fj_restart_perturb':      735                124  18'697'583           0              0          0     18'837'835     36'456'794
                 'fj_restart_perturb_obj':      670                110  17'471'256           0              0          0     16'627'276     32'024'280

Solution repositories    Added  Queried  Synchro
    'alternative_path':      0        0        0
      'best_solutions':      0        0        0
   'fj solution hints':  1'964        0    1'964
        'lp solutions':  1'094   10'834    1'093
                'pump':      0        0

Improving bounds shared    Num  Sym
            'default_lp':    4    0

Clauses shared    #Exported  #Imported  #BinaryRead  #BinaryTotal
   'default_lp':      1'808     53'592          306           306
       'max_lp':      2'093     53'200          306           306
        'no_lp':     53'373      3'695          306           306

LRAT_status: NA
CpSolverResponse summary:
status: UNKNOWN
objective: NA
best_bound: NA
integers: 356
booleans: 478
conflicts: 206977
branches: 8197078
propagations: 78620558
integer_propagations: 97063361
restarts: 1298
lp_iterations: 29684904
walltime: 2409.14
usertime: 2409.14
deterministic_time: 12072.7
gap_integral: 0

{
  "board_size": 22,
  "parity_proved": 0,
  "target": 34,
  "child_id": 982,
  "child_count": 2640,
  "partition": "unknown_pair_x_diag_plus_twos_x_diag_minus_twos",
  "build_seconds": 0.07367849349975586,
  "workers": 4,
  "requested_seed": 2026073082,
  "effective_seed": 2026073082,
  "main_diagonal_pair": [
    2,
    14
  ],
  "pair_index": 51,
  "diag_plus_twos": 16,
  "diag_minus_twos": 16,
  "pair_excess": 10,
  "residual_certificate_slack": 102,
  "analytic_minimum_line_defect": 24,
  "analytic_defect_details": {
    "row_costs": {
      "12": 6,
      "13": 3,
      "14": 0,
      "15": 0,
      "16": 0,
      "17": 0
    },
    "column_costs": {
      "12": 6,
      "13": 3,
      "14": 0,
      "15": 0,
      "16": 0,
      "17": 0
    },
    "plus_cost": 24,
    "minus_cost": 0,
    "row_column_minimum": 0
  },
  "maximal_line_constraints": 2455,
  "analytic_infeasible": false,
  "allowed_points": 242,
  "status": "UNKNOWN",
  "proof_method": "cp_sat_all_lines_with_certificate_profile_cuts",
  "elapsed_seconds": 2409.1440992355347,
  "branches": 8197078,
  "conflicts": 206977
}
